networks/zoo_69_238/zoo_69_238-lower.txt
Number of groups: 20
Flow 1: {2 1 0} {1 8 0} {8 5 0} {5 40 0} 
Flow 2: {2 7 0} {7 6 0} {6 41 0} 
Flow 3: {8 43 0} 
Flow 4: {6 18 0} {18 19 0} {19 9 0} {9 44 0} 
Flow 5: {6 24 0} {24 23 0} {23 22 0} {22 17 0} {17 16 0} {16 11 0} {11 46 0} 
Flow 6: {8 26 0} {26 31 0} {31 30 0} {30 29 0} {29 28 0} {28 14 0} {14 13 0} {13 48 0} 
Flow 7: {14 49 0} 
Flow 8: {31 21 0} {21 15 0} {15 50 0} 
Flow 9: {23 58 0} 
Flow 10: {24 25 0} {25 60 0} 
Flow 11: {26 61 0} 
Flow 12: {30 65 0} 
Flow 13: {31 35 0} {35 34 0} {34 69 0} 
Flow 14: {8 1 0} {1 2 0} {2 37 0} 
Flow 14: {3 8 0} Flow 16: {5 6 0} Flow 26: {4 1 0} Flow 27: {6 7 0} {7 2 0} Flow 29: {5 8 0} Flow 35: {22 57 0} 
Flow 49: {16 51 0} 
Flow 50: {25 20 0} {20 55 0} 
Flow 51: {21 56 0} 
Flow 54: {24 59 0} 
Flow 58: {31 32 0} {32 33 0} {33 68 0} 
Flow 60: {9 19 0} {19 18 0} {18 6 0} Flow 61: {6 5 0} Flow 65: {9 10 0} {10 15 0} {15 21 0} {21 31 0} Flow 72: {10 9 0} Flow 75: {31 26 0} {26 8 0} Flow 88: {11 16 0} {16 17 0} {17 22 0} {22 23 0} {23 24 0} {24 6 0} Flow 93: {11 12 0} {12 13 0} Flow 94: {13 14 0} Flow 95: {14 28 0} {28 29 0} {29 30 0} {30 31 0} Flow 104: {12 11 0} Flow 123: {13 12 0} Flow 130: {15 10 0} Flow 169: {25 24 0} Flow 182: {27 3 0} Flow 206: {32 31 0} Flow 216: {33 34 0} Flow 217: {33 32 0} Flow 229: {34 35 0} {35 31 0} Time taken running everything: 0 seconds
