networks/zoo_69_238/zoo_69_238-lower.sol
<?xml version = "1.0" encoding="UTF-8" standalone="yes"?>
<CPLEXSolution version="1.2">
 <header
   problemName="networks/zoo_69_238/zoo_69_238-lower.lp"
   solutionName="incumbent"
   solutionIndex="-1"
   objectiveValue="22"
   solutionTypeValue="3"
   solutionTypeString="primal"
   solutionStatusValue="101"
   solutionStatusString="integer optimal solution"
   solutionMethodString="mip"
   primalFeasible="1"
   dualFeasible="1"
   MIPNodes="0"
   MIPIterations="887"
   writeLevel="3"/>
 <quality
   epInt="1.0000000000000001e-05"
   epRHS="9.9999999999999995e-07"
   maxIntInfeas="0"
   maxPrimalInfeas="0"
   maxX="1"
   maxSlack="1"/>
 <variables>
  <variable name="Y(11,26)" index="575" value="1"/>
  <variable name="Y(26,6)" index="1380" value="1"/>
  <variable name="Y(29,8)" index="1547" value="1"/>
  <variable name="Y(49,16)" index="2655" value="1"/>
  <variable name="Y(50,20)" index="2714" value="1"/>
  <variable name="Y(54,24)" index="2938" value="1"/>
  <variable name="Y(58,33)" index="3167" value="1"/>
  <variable name="Y(60,2)" index="3246" value="1"/>
  <variable name="Y(93,13)" index="5072" value="1"/>
  <variable name="Y(97,21)" index="5300" value="1"/>
  <variable name="Y(105,5)" index="5724" value="1"/>
  <variable name="Y(115,22)" index="6291" value="1"/>
  <variable name="Y(156,35)" index="8559" value="1"/>
  <variable name="Y(166,25)" index="9099" value="1"/>
  <variable name="Y(177,15)" index="9694" value="1"/>
  <variable name="Y(183,11)" index="10020" value="1"/>
  <variable name="Y(189,9)" index="10348" value="1"/>
  <variable name="Y(194,23)" index="10637" value="1"/>
  <variable name="Y(203,14)" index="11123" value="1"/>
  <variable name="Y(216,34)" index="11858" value="1"/>
  <variable name="Y(227,30)" index="12459" value="1"/>
  <variable name="Y(229,8)" index="12547" value="1"/>
  <variable name="X(1,2,26)" index="13115" value="1"/>
  <variable name="X(1,8,11)" index="13338" value="1"/>
  <variable name="X(2,1,11)" index="13576" value="1"/>
  <variable name="X(2,7,26)" index="13829" value="1"/>
  <variable name="X(2,37,60)" index="14101" value="1"/>
  <variable name="X(3,8,183)" index="14462" value="1"/>
  <variable name="X(4,1,26)" index="14543" value="1"/>
  <variable name="X(5,6,183)" index="14938" value="1"/>
  <variable name="X(5,8,29)" index="15022" value="1"/>
  <variable name="X(5,40,105)" index="15336" value="1"/>
  <variable name="X(6,5,105)" index="15574" value="1"/>
  <variable name="X(6,7,60)" index="15767" value="1"/>
  <variable name="X(6,18,177)" index="16122" value="1"/>
  <variable name="X(6,24,183)" index="16366" value="1"/>
  <variable name="X(6,41,26)" index="16447" value="1"/>
  <variable name="X(7,2,60)" index="16719" value="1"/>
  <variable name="X(7,6,26)" index="16923" value="1"/>
  <variable name="X(8,1,229)" index="17364" value="1"/>
  <variable name="X(8,5,183)" index="17556" value="1"/>
  <variable name="X(8,26,11)" index="17622" value="1"/>
  <variable name="X(8,43,29)" index="17878" value="1"/>
  <variable name="X(9,10,177)" index="18264" value="1"/>
  <variable name="X(9,19,60)" index="18385" value="1"/>
  <variable name="X(9,44,189)" index="18752" value="1"/>
  <variable name="X(10,9,189)" index="18990" value="1"/>
  <variable name="X(10,15,177)" index="19216" value="1"/>
  <variable name="X(11,12,93)" index="19370" value="1"/>
  <variable name="X(11,16,194)" index="19709" value="1"/>
  <variable name="X(11,46,183)" index="19936" value="1"/>
  <variable name="X(12,11,194)" index="20185" value="1"/>
  <variable name="X(12,13,93)" index="20322" value="1"/>
  <variable name="X(13,12,194)" index="20661" value="1"/>
  <variable name="X(13,14,97)" index="20802" value="1"/>
  <variable name="X(13,48,93)" index="21036" value="1"/>
  <variable name="X(14,13,194)" index="21375" value="1"/>
  <variable name="X(14,28,97)" index="21516" value="1"/>
  <variable name="X(14,49,203)" index="21860" value="1"/>
  <variable name="X(15,10,189)" index="22084" value="1"/>
  <variable name="X(15,21,156)" index="22289" value="1"/>
  <variable name="X(15,50,177)" index="22548" value="1"/>
  <variable name="X(16,11,183)" index="22792" value="1"/>
  <variable name="X(16,17,194)" index="23041" value="1"/>
  <variable name="X(16,51,49)" index="23134" value="1"/>
  <variable name="X(17,16,183)" index="23506" value="1"/>
  <variable name="X(17,22,194)" index="23755" value="1"/>
  <variable name="X(18,6,60)" index="23859" value="1"/>
  <variable name="X(18,19,177)" index="24214" value="1"/>
  <variable name="X(19,9,177)" index="24452" value="1"/>
  <variable name="X(19,18,60)" index="24573" value="1"/>
  <variable name="X(20,55,50)" index="24801" value="1"/>
  <variable name="X(21,15,189)" index="25178" value="1"/>
  <variable name="X(21,31,156)" index="25383" value="1"/>
  <variable name="X(21,56,97)" index="25562" value="1"/>
  <variable name="X(22,17,183)" index="25886" value="1"/>
  <variable name="X(22,23,194)" index="26135" value="1"/>
  <variable name="X(22,57,115)" index="26294" value="1"/>
  <variable name="X(23,22,183)" index="26600" value="1"/>
  <variable name="X(23,24,166)" index="26821" value="1"/>
  <variable name="X(23,58,194)" index="27087" value="1"/>
  <variable name="X(24,6,177)" index="27308" value="1"/>
  <variable name="X(24,23,183)" index="27552" value="1"/>
  <variable name="X(24,25,166)" index="27773" value="1"/>
  <variable name="X(24,59,54)" index="27899" value="1"/>
  <variable name="X(25,20,50)" index="28133" value="1"/>
  <variable name="X(25,24,177)" index="28498" value="1"/>
  <variable name="X(25,60,166)" index="28725" value="1"/>
  <variable name="X(26,8,229)" index="29026" value="1"/>
  <variable name="X(26,31,58)" index="29093" value="1"/>
  <variable name="X(26,61,11)" index="29284" value="1"/>
  <variable name="X(27,3,183)" index="29694" value="1"/>
  <variable name="X(28,14,203)" index="29952" value="1"/>
  <variable name="X(28,29,97)" index="30084" value="1"/>
  <variable name="X(29,28,203)" index="30428" value="1"/>
  <variable name="X(29,30,97)" index="30560" value="1"/>
  <variable name="X(30,29,203)" index="30904" value="1"/>
  <variable name="X(30,31,97)" index="31036" value="1"/>
  <variable name="X(30,65,227)" index="31404" value="1"/>
  <variable name="X(31,21,97)" index="31512" value="1"/>
  <variable name="X(31,26,229)" index="31882" value="1"/>
  <variable name="X(31,30,227)" index="32118" value="1"/>
  <variable name="X(31,32,58)" index="32187" value="1"/>
  <variable name="X(31,35,156)" index="32523" value="1"/>
  <variable name="X(32,31,227)" index="32832" value="1"/>
  <variable name="X(32,33,58)" index="32901" value="1"/>
  <variable name="X(33,32,227)" index="33308" value="1"/>
  <variable name="X(33,34,216)" index="33535" value="1"/>
  <variable name="X(33,68,58)" index="33615" value="1"/>
  <variable name="X(34,35,229)" index="34024" value="1"/>
  <variable name="X(34,69,216)" index="34249" value="1"/>
  <variable name="X(35,31,229)" index="34500" value="1"/>
  <variable name="X(35,34,156)" index="34665" value="1"/>
 </variables>
</CPLEXSolution>
